(set-logic QF_S)
(declare-fun T_15 () Bool)
(declare-fun T_22 () Bool)
(declare-fun T_2f () Bool)
(declare-fun T_30 () Bool)
(declare-fun T_8 () Bool)
(declare-fun T_14 () Int)
(declare-fun T_21 () Int)
(declare-fun T_2e () Int)
(declare-fun T_7 () Int)
(declare-fun PCTEMP_LHS_4 () String)
(assert T_8)
(assert (= T_8 (< 0 T_7)))
(assert (= T_7 (str.len PCTEMP_LHS_4))) ; len 0
(assert T_15)
(assert (= T_15 (< 1 T_14)))
(assert (= T_14 (str.len PCTEMP_LHS_4))) ; len 0
(assert T_22)
(assert (= T_22 (< 2 T_21)))
(assert (= T_21 (str.len PCTEMP_LHS_4))) ; len 0
(assert T_30)
(assert (= T_30 (not T_2f)))
(assert (= T_2f (< 3 T_2e)))
(assert (= T_2e (str.len PCTEMP_LHS_4))) ; len 0
(check-sat)
